
  15    0


   0   8 2 3 4 10 11 12 13 14 
   3   4 9 8 6 5 
   9   2 6 5 
  10   1 7 
   7   1 15
   3   1 15
   8   1 15
   1   1 15
   8   1 15
   7   1 15
  10   1 15
   1   1 15
   1   1 15
   2   1 15
   0   0 
